9
2147483647 62 17 73 90 24 75 92 94 
62 2147483647 1 54 44 32 94 81 18 
17 1 2147483647 67 57 62 52 63 73 
73 54 67 2147483647 86 91 86 25 90 
90 44 57 86 2147483647 33 92 91 35 
24 32 62 91 33 2147483647 67 66 74 
75 94 52 86 92 67 2147483647 48 17 
92 81 63 25 91 66 48 2147483647 7 
94 18 73 90 35 74 17 7 2147483647 
